unsat
(:cnf-encoding-aux-vars 86
 :elim-unconstrained    3
 :max-memory            19.54
 :memory                18.86
 :nlsat-arith-var       18
 :nlsat-atoms           199
 :nlsat-bool-var        107
 :nlsat-clauses         605
 :nlsat-conflicts       2
 :nlsat-decisions       3
 :nlsat-propagations    8
 :num-allocs            890288
 :rlimit-count          181905
 :solve-eqs-elim-vars   94
 :solve-eqs-steps       381
 :time                  0.13
 :total-time            0.15)
